unsat
( _c0
  _c1
  _c10
  _c100
  _c101
  _c102
  _c103
  _c104
  _c105
  _c106
  _c107
  _c108
  _c109
  _c11
  _c110
  _c111
  _c112
  _c113
  _c114
  _c115
  _c116
  _c117
  _c118
  _c119
  _c12
  _c120
  _c121
  _c122
  _c123
  _c124
  _c125
  _c126
  _c127
  _c128
  _c129
  _c13
  _c130
  _c131
  _c132
  _c133
  _c134
  _c135
  _c136
  _c137
  _c138
  _c139
  _c14
  _c140
  _c141
  _c142
  _c143
  _c144
  _c145
  _c146
  _c147
  _c148
  _c149
  _c15
  _c150
  _c16
  _c17
  _c18
  _c19
  _c2
  _c20
  _c21
  _c22
  _c23
  _c24
  _c25
  _c26
  _c27
  _c28
  _c29
  _c3
  _c30
  _c301
  _c302
  _c303
  _c304
  _c305
  _c306
  _c307
  _c308
  _c309
  _c31
  _c310
  _c311
  _c312
  _c313
  _c314
  _c315
  _c316
  _c317
  _c318
  _c319
  _c32
  _c320
  _c321
  _c322
  _c323
  _c324
  _c325
  _c326
  _c327
  _c328
  _c329
  _c33
  _c330
  _c331
  _c332
  _c333
  _c334
  _c335
  _c336
  _c337
  _c338
  _c339
  _c34
  _c340
  _c341
  _c342
  _c343
  _c344
  _c345
  _c346
  _c347
  _c348
  _c349
  _c35
  _c350
  _c351
  _c352
  _c353
  _c354
  _c355
  _c356
  _c357
  _c358
  _c359
  _c36
  _c360
  _c361
  _c362
  _c363
  _c364
  _c365
  _c366
  _c367
  _c368
  _c369
  _c37
  _c370
  _c371
  _c372
  _c373
  _c374
  _c375
  _c376
  _c377
  _c378
  _c379
  _c38
  _c380
  _c381
  _c382
  _c383
  _c384
  _c385
  _c386
  _c387
  _c388
  _c389
  _c39
  _c390
  _c391
  _c392
  _c393
  _c394
  _c395
  _c396
  _c397
  _c398
  _c399
  _c4
  _c40
  _c400
  _c401
  _c41
  _c42
  _c43
  _c44
  _c45
  _c46
  _c47
  _c48
  _c49
  _c5
  _c50
  _c51
  _c52
  _c527
  _c528
  _c529
  _c53
  _c530
  _c531
  _c532
  _c533
  _c534
  _c535
  _c536
  _c537
  _c538
  _c539
  _c54
  _c540
  _c541
  _c542
  _c543
  _c544
  _c545
  _c546
  _c547
  _c548
  _c549
  _c55
  _c550
  _c551
  _c552
  _c553
  _c554
  _c555
  _c556
  _c557
  _c558
  _c559
  _c56
  _c560
  _c561
  _c562
  _c563
  _c564
  _c565
  _c566
  _c567
  _c568
  _c569
  _c57
  _c570
  _c571
  _c572
  _c573
  _c574
  _c575
  _c576
  _c577
  _c578
  _c579
  _c58
  _c580
  _c581
  _c582
  _c583
  _c584
  _c585
  _c586
  _c587
  _c588
  _c589
  _c59
  _c590
  _c591
  _c592
  _c593
  _c594
  _c595
  _c596
  _c597
  _c598
  _c599
  _c6
  _c60
  _c600
  _c601
  _c602
  _c603
  _c604
  _c605
  _c606
  _c607
  _c608
  _c609
  _c61
  _c610
  _c611
  _c612
  _c613
  _c614
  _c615
  _c616
  _c617
  _c618
  _c619
  _c62
  _c620
  _c621
  _c622
  _c623
  _c624
  _c625
  _c626
  _c627
  _c628
  _c629
  _c63
  _c630
  _c631
  _c632
  _c64
  _c65
  _c66
  _c67
  _c68
  _c683
  _c684
  _c685
  _c686
  _c687
  _c688
  _c689
  _c69
  _c690
  _c691
  _c692
  _c693
  _c694
  _c695
  _c696
  _c697
  _c698
  _c699
  _c7
  _c70
  _c700
  _c701
  _c702
  _c703
  _c704
  _c705
  _c706
  _c707
  _c71
  _c72
  _c73
  _c74
  _c75
  _c758
  _c759
  _c76
  _c760
  _c761
  _c762
  _c763
  _c764
  _c765
  _c766
  _c767
  _c768
  _c769
  _c77
  _c770
  _c771
  _c772
  _c773
  _c774
  _c775
  _c776
  _c777
  _c778
  _c779
  _c78
  _c780
  _c781
  _c782
  _c79
  _c8
  _c80
  _c81
  _c82
  _c83
  _c833
  _c834
  _c835
  _c836
  _c837
  _c838
  _c839
  _c84
  _c840
  _c841
  _c842
  _c843
  _c844
  _c845
  _c846
  _c847
  _c848
  _c849
  _c85
  _c850
  _c851
  _c852
  _c853
  _c854
  _c855
  _c856
  _c857
  _c86
  _c87
  _c88
  _c888
  _c889
  _c89
  _c890
  _c891
  _c892
  _c893
  _c894
  _c895
  _c896
  _c897
  _c898
  _c899
  _c9
  _c90
  _c900
  _c91
  _c92
  _c93
  _c94
  _c95
  _c96
  _c97
  _c98
  _c99 )
